# Solution for model blend2
# Objective value = 7.5989849999999990e+00
VV276 0
VV277 0
VV278 0
VV279 0
VV280 0
VV281 0
VV282 0
VV283 0
VV284 0
VV285 0
VV286 0
VV287 0
VV288 0
VV289 0
VV290 0
VV291 0
VV292 0
VV293 0
VV294 0
VV295 0
VV296 0
VV297 0
VV298 0
VV299 0
VV300 2
VV301 0
VV302 0
VV303 0
VV304 0
VV305 0
VV306 0
VV307 0
VV308 0
VV309 0
VV310 0
VV311 1
VV312 0
VV313 0
VV314 0
VV315 0
VV316 0
VV317 0
VV318 0
VV319 0
VV320 1
VV321 1
VV322 1
VV323 0
VV324 0
VV325 0
VV326 0
VV327 0
VV328 1
VV329 0
VV330 0
VV331 0
VV332 0
VV333 0
VV334 0
VV335 0
VV336 0
VV337 0
VV338 0
VV339 1
VV340 1
VV341 0
VV342 0
VV343 0
VV344 0
VV345 0
VV346 2
VV347 1
VV348 0
VV349 0
VV350 0
VV351 0
VV352 1
VV353 0
VV354 0
VV355 0
VV356 0
VV357 0
VV358 0
VV359 0
VV360 1
VV361 2
VV362 0
VV363 0
VV364 0
VV365 0
VV366 0
VV367 0
VV368 0
VV369 0
VV370 0
VV371 0
VV372 0
VV373 0
VV374 0
VV375 0
VV376 0
VV377 0
VV378 0
VV379 0
VV380 0
VV381 0
VV382 0
VV383 0
VV384 0
VV385 0
VV386 0
VV387 0
VV388 1
VV389 0
VV390 0
VV391 0
VV392 0
VV393 0
VV394 0
VV395 0
VV396 0
VV397 0
VV398 0
VV399 0
VV400 0
VV401 0
VV402 0
VV403 0
VV404 0
VV405 0
VV406 0
VV407 0
VV408 1
VV409 1
VV410 1
VV411 0
VV412 0
VV413 0
VV414 0
VV415 0
VV416 1
VV417 0
VV418 0
VV419 0
VV420 0
VV421 0
VV422 0
VV423 0
VV424 0
VV425 0
VV426 0
VV427 1
VV428 1
VV429 0
VV430 0
VV431 0
VV432 0
VV433 0
VV434 0
VV435 1
VV436 0
VV437 0
VV438 0
VV439 0
VV440 1
VV441 0
VV442 0
VV443 0
VV444 0
VV445 0
VV446 0
VV447 0
VV448 0
VV449 1
VV450 0
VV451 0
VV452 0
VV453 0
VV454 0
VV455 0
VV456 0
VV457 0
VV458 0
VV459 0
VV460 0
VV461 0
VV462 0
VV463 0
VV464 0
VV465 0
VV466 0
VV467 0
VV468 0
VV469 0
VV470 0
VV471 0
VV472 0
VV473 0
VV474 0
VV475 0
VV476 2128
VV477 0
VV478 0
VV479 0
VV480 0
VV481 0
VV482 0
VV483 0
VV484 0
VV485 0
VV486 0
VV487 1000
VV488 0
VV489 0
VV490 0
VV491 0
VV492 0
VV493 0
VV494 0
VV495 0
VV496 1828
VV497 1041
VV498 1443
VV499 0
VV500 0
VV501 0
VV502 0
VV503 0
VV504 1420
VV505 0
VV506 0
VV507 0
VV508 0
VV509 0
VV510 0
VV511 0
VV512 0
VV513 0
VV514 0
VV515 1605
VV516 1430
VV517 0
VV518 0
VV519 0
VV520 0
VV521 0
VV522 2000
VV523 1830
VV524 0
VV525 0
VV526 0
VV527 0
VV528 1844
VV529 0
VV530 0
VV531 0
VV532 0
VV533 0
VV534 0
VV535 0
VV536 1000
VV537 2009
VV538 0
VV539 0
VV540 20578
VV541 0
VV542 0
VV543 0
VV544 0
VV545 0
VV546 0
VV547 0
VV548 0
VV549 0
VV550 0
VV551 0
VV552 0
VV553 0
VV554 0
VV555 0
VV556 0
VV557 0
VV558 0
VV559 0
VV560 0
VV561 0
VV562 0
VV563 0
VV564 0
VV565 1
VV566 0
VV567 0
VV568 0
VV569 0
VV570 0
VV571 0
VV572 0
VV573 0
VV574 0
VV575 0
VV576 1
VV577 0
VV578 0
VV579 0
VV580 0
VV581 0
VV582 0
VV583 0
VV584 0
VV585 1
VV586 1
VV587 1
VV588 0
VV589 0
VV590 0
VV591 0
VV592 0
VV593 1
VV594 0
VV595 0
VV596 0
VV597 0
VV598 0
VV599 0
VV600 0
VV601 0
VV602 0
VV603 0
VV604 1
VV605 1
VV606 0
VV607 0
VV608 0
VV609 0
VV610 0
VV611 1
VV612 1
VV613 0
VV614 0
VV615 0
VV616 0
VV617 1
VV618 0
VV619 0
VV620 0
VV621 0
VV622 0
VV623 0
VV624 0
VV625 1
VV626 1
VV627 0
VV628 0
